p tdp 20 84
1 3
1 11
1 12
1 16
1 18
1 19
1 20
2 5
2 6
2 8
2 10
2 12
2 20
3 5
3 6
3 7
3 8
3 11
3 13
3 16
3 17
3 20
4 5
4 7
4 8
4 12
4 13
4 15
4 19
4 20
5 6
5 7
5 11
5 13
5 14
6 8
6 9
6 10
6 11
6 12
6 13
6 15
6 19
7 10
7 11
7 12
7 13
7 14
7 19
8 11
8 12
8 14
8 17
8 18
8 19
8 20
9 10
9 16
9 18
9 20
10 11
10 12
10 13
10 15
11 14
11 15
11 18
11 19
12 14
12 15
12 16
12 17
13 14
13 16
13 18
14 15
14 18
15 19
15 20
16 17
16 19
16 20
17 18
19 20
